

[NpcPos]	Flags	Index	PosX	PosY	Type	IsRangeCheck
0	0	1	0	0	7	0
1	0	2	0	0	7	0
2	0	3	0	0	7	0
3	0	4	0	0	7	0
4	0	5	0	0	7	0
5	0	6	0	0	7	0
6	0	7	0	0	7	0
7	0	8	0	0	7	0
8	0	9	0	0	7	0
9	0	10	0	0	7	0
10	0	11	0	0	7	0
11	0	12	0	0	7	0
12	0	13	0	0	7	0
13	0	14	0	0	7	0
14	0	15	0	0	7	0
15	0	16	0	0	7	0
16	0	17	0	0	7	0
17	0	18	0	0	7	0
18	0	19	0	0	7	0
19	0	20	0	0	7	0
20	0	21	0	0	7	0
21	0	22	0	0	7	0
22	0	23	0	0	7	0
23	0	24	0	0	7	0
24	0	25	0	0	7	0
25	0	26	0	0	7	0
26	0	27	0	0	7	0
27	0	28	0	0	7	0
28	0	29	0	0	7	0
29	0	30	0	0	7	0
30	0	31	0	0	6	0
31	0	32	0	0	6	0
32	0	33	0	0	6	0
33	0	34	0	0	6	0
34	0	35	0	0	7	0
35	0	36	0	0	7	0
36	0	37	0	0	7	0
37	0	38	0	0	7	0
38	0	39	0	0	7	0
39	0	40	0	0	7	0
40	0	41	0	0	7	0
41	0	42	0	0	7	0
42	0	43	0	0	7	0
43	0	44	0	0	7	0
44	0	50	0	0	1	0

[WarpLst]	NpcsIdx	NSetIdx	TargetIdx	LV	Fee	Type
0	31	0	116	0	0	0
1	31	1	117	0	0	0
2	31	2	118	0	0	0
3	31	3	119	0	0	0
4	31	4	120	0	0	0
5	31	5	121	0	0	0
6	31	6	122	0	0	0
7	31	7	123	0	0	0
8	31	8	124	0	0	0
9	31	9	125	0	0	0
10	31	10	126	0	0	0
11	31	11	127	0	0	0
12	31	12	128	0	0	0
13	31	13	129	0	0	0
14	31	14	130	0	0	0
15	31	15	131	0	0	0
16	31	16	132	0	0	0
17	31	17	133	0	0	0
18	31	18	134	0	0	0
19	31	19	135	0	0	0
20	31	20	136	0	0	0
21	31	21	137	0	0	0
22	31	22	138	0	0	0
23	31	23	139	0	0	0
24	31	24	140	0	0	0
25	31	25	141	0	0	0
26	31	26	142	0	0	0
27	31	27	143	0	0	0
28	31	28	144	0	0	0
29	31	29	145	0	0	0
30	31	30	146	0	0	0
31	31	31	147	0	0	0
32	31	32	148	0	0	0
33	31	33	149	0	0	0
34	31	34	150	0	0	0
35	31	35	151	0	0	0
36	31	36	152	0	0	0
37	31	37	153	0	0	0
38	31	38	154	0	0	0
39	31	39	155	0	0	0
40	31	40	156	0	0	0
41	31	41	157	0	0	0
42	31	42	158	0	0	0
43	31	43	159	0	0	0
44	31	44	160	0	0	0
45	31	45	161	0	0	0
46	31	46	162	0	0	0
47	31	47	163	0	0	0
48	32	0	116	0	0	0
49	32	1	117	0	0	0
50	32	2	118	0	0	0
51	32	3	119	0	0	0
52	32	4	120	0	0	0
53	32	5	121	0	0	0
54	32	6	122	0	0	0
55	32	7	123	0	0	0
56	32	8	124	0	0	0
57	32	9	125	0	0	0
58	32	10	126	0	0	0
59	32	11	127	0	0	0
60	32	12	128	0	0	0
61	32	13	129	0	0	0
62	32	14	130	0	0	0
63	32	15	131	0	0	0
64	32	16	132	0	0	0
65	32	17	133	0	0	0
66	32	18	134	0	0	0
67	32	19	135	0	0	0
68	32	20	136	0	0	0
69	32	21	137	0	0	0
70	32	22	138	0	0	0
71	32	23	139	0	0	0
72	32	24	140	0	0	0
73	32	25	141	0	0	0
74	32	26	142	0	0	0
75	32	27	143	0	0	0
76	32	28	144	0	0	0
77	32	29	145	0	0	0
78	32	30	146	0	0	0
79	32	31	147	0	0	0
80	32	32	148	0	0	0
81	32	33	149	0	0	0
82	32	34	150	0	0	0
83	32	35	151	0	0	0
84	32	36	152	0	0	0
85	32	37	153	0	0	0
86	32	38	154	0	0	0
87	32	39	155	0	0	0
88	32	40	156	0	0	0
89	32	41	157	0	0	0
90	32	42	158	0	0	0
91	32	43	159	0	0	0
92	32	44	160	0	0	0
93	32	45	161	0	0	0
94	32	46	162	0	0	0
95	32	47	163	0	0	0
96	33	0	116	0	0	0
97	33	1	117	0	0	0
98	33	2	118	0	0	0
99	33	3	119	0	0	0
100	33	4	120	0	0	0
101	33	5	121	0	0	0
102	33	6	122	0	0	0
103	33	7	123	0	0	0
104	33	8	124	0	0	0
105	33	9	125	0	0	0
106	33	10	126	0	0	0
107	33	11	127	0	0	0
108	33	12	128	0	0	0
109	33	13	129	0	0	0
110	33	14	130	0	0	0
111	33	15	131	0	0	0
112	33	16	132	0	0	0
113	33	17	133	0	0	0
114	33	18	134	0	0	0
115	33	19	135	0	0	0
116	33	20	136	0	0	0
117	33	21	137	0	0	0
118	33	22	138	0	0	0
119	33	23	139	0	0	0
120	33	24	140	0	0	0
121	33	25	141	0	0	0
122	33	26	142	0	0	0
123	33	27	143	0	0	0
124	33	28	144	0	0	0
125	33	29	145	0	0	0
126	33	30	146	0	0	0
127	33	31	147	0	0	0
128	33	32	148	0	0	0
129	33	33	149	0	0	0
130	33	34	150	0	0	0
131	33	35	151	0	0	0
132	33	36	152	0	0	0
133	33	37	153	0	0	0
134	33	38	154	0	0	0
135	33	39	155	0	0	0
136	33	40	156	0	0	0
137	33	41	157	0	0	0
138	33	42	158	0	0	0
139	33	43	159	0	0	0
140	33	44	160	0	0	0
141	33	45	161	0	0	0
142	33	46	162	0	0	0
143	33	47	163	0	0	0
144	34	0	116	0	0	0
145	34	1	117	0	0	0
146	34	2	118	0	0	0
147	34	3	119	0	0	0
148	34	4	120	0	0	0
149	34	5	121	0	0	0
150	34	6	122	0	0	0
151	34	7	123	0	0	0
152	34	8	124	0	0	0
153	34	9	125	0	0	0
154	34	10	126	0	0	0
155	34	11	127	0	0	0
156	34	12	128	0	0	0
157	34	13	129	0	0	0
158	34	14	130	0	0	0
159	34	15	131	0	0	0
160	34	16	132	0	0	0
161	34	17	133	0	0	0
162	34	18	134	0	0	0
163	34	19	135	0	0	0
164	34	20	136	0	0	0
165	34	21	137	0	0	0
166	34	22	138	0	0	0
167	34	23	139	0	0	0
168	34	24	140	0	0	0
169	34	25	141	0	0	0
170	34	26	142	0	0	0
171	34	27	143	0	0	0
172	34	28	144	0	0	0
173	34	29	145	0	0	0
174	34	30	146	0	0	0
175	34	31	147	0	0	0
176	34	32	148	0	0	0
177	34	33	149	0	0	0
178	34	34	150	0	0	0
179	34	35	151	0	0	0
180	34	36	152	0	0	0
181	34	37	153	0	0	0
182	34	38	154	0	0	0
183	34	39	155	0	0	0
184	34	40	156	0	0	0
185	34	41	157	0	0	0
186	34	42	158	0	0	0
187	34	43	159	0	0	0
188	34	44	160	0	0	0
189	34	45	161	0	0	0
190	34	46	162	0	0	0
191	34	47	163	0	0	0

[SkillLst]	NSetIdx	NpcsIdx	SkillIdx	SkillLv

[ShopLst]	NpcsIdx	NSetIdx	ItemKind	ItemOpt	ReputationClass	DurationIdx	Price
0	50	0	3	1	-19	0	60
1	50	1	4	1	-19	0	800
2	50	2	5	1	-19	0	5000
3	50	3	6	1	-19	0	60
4	50	4	7	1	-19	0	800
5	50	5	8	1	-19	0	5000
6	50	8	3	4	-19	0	240
7	50	9	4	4	-19	0	3200
8	50	10	5	4	-19	0	20000
9	50	11	6	4	-19	0	240
10	50	12	7	4	-19	0	3200
11	50	13	8	4	-19	0	20000
12	50	16	3	7	-19	0	420
13	50	17	4	7	-19	0	5600
14	50	18	5	7	-19	0	35000
15	50	19	6	7	-19	0	420
16	50	20	7	7	-19	0	5600
17	50	21	8	7	-19	0	35000
18	50	24	5	20	1	0	100000
19	50	25	8	20	1	0	100000
20	50	26	12	10	1	0	8000
21	50	27	5	30	2	0	150000
22	50	28	8	30	2	0	150000
23	50	29	12	20	2	0	16000
24	50	35	5	50	3	0	250000
25	50	36	8	50	3	0	250000
26	50	37	12	30	3	0	24000
